m = 2;
n = 20;
l = [10, 10, ];
s = [1, 1, 1, 1, 1, 1, 1, 1, 1, 1, 1, 1, 1, 1, 1, 1, 1, 1, 1, 1, ];
x = [1, 4, 2, 1, 0, 0, 2, 2, 3, 3, 0, 3, 1, 3, 4, 1, 3, 4, 1, 2, 2, ];
y = [3, 1, 3, 1, 3, 2, 4, 1, 3, 2, 1, 0, 2, 4, 3, 4, 1, 2, 0, 0, 2, ];
% lower_bound = 21;
length = [10, 10, ];
n = 20;
s = [1, 1, 1, 1, 1, 1, 1, 1, 1, 1, 1, 1, 1, 1, 1, 1, 1, 1, 1, 1]
x = [1, 4, 2, 1, 0, 0, 2, 2, 3, 3, 0, 3, 1, 3, 4, 1, 3, 4, 1, 2, 2]
y = [3, 1, 3, 1, 3, 2, 4, 1, 3, 2, 1, 0, 2, 4, 3, 4, 1, 2, 0, 0, 2]
X = [[1]; [4]; [2]; [1]; [0]; [0]; [2]; [2]; [3]; [3]; [0]; [3]; [1]; [3]; [4]; [1]; [3]; [4]; [1]; [2]; [2]; ]
Y = [[3]; [1]; [3]; [1]; [3]; [2]; [4]; [1]; [3]; [2]; [1]; [0]; [2]; [4]; [3]; [4]; [1]; [2]; [0]; [0]; [2]; ]
I = [[0]; [1]; [2]; [3]; [4]; [5]; [6]; [7]; [8]; [9]; [10]; [11]; [12]; [13]; [14]; [15]; [16]; [17]; [18]; [19]; [20]; ]

